CPXPARAM_Read_DataCheck                          1
Found incumbent of value 0.000000 after 0.00 sec. (0.04 ticks)
Tried aggregator 1 time.
MIP Presolve modified 1 coefficients.
Reduced MIP has 317 rows, 1505 columns, and 7517 nonzeros.
Reduced MIP has 1505 binaries, 0 generals, 0 SOSs, and 0 indicators.
Presolve time = 0.02 sec. (2.82 ticks)
Probing time = 0.00 sec. (3.24 ticks)
Tried aggregator 1 time.
Reduced MIP has 317 rows, 1505 columns, and 7517 nonzeros.
Reduced MIP has 1505 binaries, 0 generals, 0 SOSs, and 0 indicators.
Presolve time = 0.00 sec. (3.39 ticks)
Probing time = 0.02 sec. (3.14 ticks)
Clique table members: 5314.
MIP emphasis: balance optimality and feasibility.
MIP search method: dynamic search.
Parallel mode: deterministic, using up to 4 threads.
Root relaxation solution time = 0.00 sec. (5.80 ticks)

        Nodes                                         Cuts/
   Node  Left     Objective  IInf  Best Integer    Best Bound    ItCnt     Gap

*     0+    0                            0.0000     9291.0000              --- 
      0     0     4686.8444     9        0.0000     4686.8444      462     --- 
*     0+    0                         1939.0000     4686.8444           141.71%
      0     0     4674.4289     9     1939.0000  Cliques: 179      472  141.07%
      0     0     4523.6968    79     1939.0000  Cliques: 179      536  133.30%
*     0+    0                         2456.0000     4523.6968            84.19%
      0     0        cutoff           2456.0000     2456.0000      888    0.00%
Elapsed time = 0.16 sec. (111.58 ticks, tree = 0.01 MB, solutions = 3)

Clique cuts applied:  531

Root node processing (before b&c):
  Real time             =    0.16 sec. (111.70 ticks)
Parallel b&c, 4 threads:
  Real time             =    0.00 sec. (0.00 ticks)
  Sync time (average)   =    0.00 sec.
  Wait time (average)   =    0.00 sec.
                          ------------
Total (root+branch&cut) =    0.16 sec. (111.70 ticks)
